sifdecoder -A pc64.lnx.gfo -st   DEGENLPA

 Problem name: DEGENLPA

 Double precision version will be formed

 The objective function uses 1 linear group
 
 There are 15 linear equality constraints
 
 There are 20 variables bounded from below and above 
 
 
 File successfully decoded
 CUTEST: tools (double precision version) compiled successfully
 CUTEst: ipopt (double precision version) compiled successfully

******************************************************************************
This program contains Ipopt, a library for large-scale nonlinear optimization.
 Ipopt is released as open source code under the Eclipse Public License (EPL).
         For more information visit http://projects.coin-or.org/Ipopt
******************************************************************************

This is Ipopt version trunk, running with linear solver ma57.

Number of nonzeros in equality constraint Jacobian...:       82
Number of nonzeros in inequality constraint Jacobian.:        0
Number of nonzeros in Lagrangian Hessian.............:        0

Total number of variables............................:       20
                     variables with only lower bounds:        0
                variables with lower and upper bounds:       20
                     variables with only upper bounds:        0
Total number of equality constraints.................:       15
Total number of inequality constraints...............:        0
        inequality constraints with only lower bounds:        0
   inequality constraints with lower and upper bounds:        0
        inequality constraints with only upper bounds:        0

iter    objective    inf_pr   inf_du lg(mu)  ||d||  lg(rg) alpha_du alpha_pr  ls
   0  5.2803532e+02 3.42e+02 4.17e+01  -1.0 0.00e+00    -  0.00e+00 0.00e+00   0
   1  1.2311615e+02 9.92e+01 1.01e+02  -1.0 1.38e+00    -  7.67e-03 7.10e-01f  1
   2  8.8747368e+01 9.70e+01 9.70e+01  -1.0 1.32e+01    -  5.14e-02 2.22e-02f  1
   3  7.7267371e+01 9.21e+01 8.85e+01  -1.0 3.05e+00    -  1.03e-01 5.11e-02f  1
   4  5.9168113e+01 8.03e+01 5.18e+01  -1.0 3.93e+00    -  8.39e-01 1.28e-01f  1
   5  5.5609203e+00 1.23e+01 2.62e+01  -1.0 9.62e-01    -  1.59e-01 8.47e-01f  1
   6  5.0422327e+00 1.17e+01 5.28e+00  -1.0 1.53e-01    -  1.00e+00 5.33e-02h  1
   7  3.3770551e+00 7.96e+00 3.04e+01  -1.0 2.70e-01    -  1.00e-01 3.17e-01f  1
   8  7.0265229e-01 8.76e-02 3.49e-01  -1.0 2.01e-01    -  1.00e+00 9.89e-01h  1
   9  2.1047748e-01 9.05e-03 9.07e+00  -1.7 1.19e-02    -  1.00e+00 8.97e-01h  1
iter    objective    inf_pr   inf_du lg(mu)  ||d||  lg(rg) alpha_du alpha_pr  ls
  10  2.1090072e-01 8.25e-03 8.84e+03  -1.7 1.10e-03    -  1.00e+00 8.76e-02h  1
  11  2.1358346e-01 8.16e-03 4.52e+04  -1.7 4.08e-02    -  3.27e-02 1.14e-02h  1
  12  3.3479274e-01 7.70e-03 4.24e+04  -1.7 1.27e-01    -  4.35e-02 5.65e-02f  5
  13  2.1666788e+00 7.84e-04 6.14e+03  -1.7 1.20e-01    -  1.92e-01 8.98e-01h  1
  14  2.1940673e+00 7.14e-04 8.68e+04  -1.7 1.45e-02    -  8.65e-01 9.01e-02h  1
  15  2.2090006e+00 6.64e-04 8.00e+04  -1.7 1.68e-02    -  7.01e-02 7.03e-02f  2
  16  3.3429601e+00 3.64e-17 1.51e+04  -1.7 2.75e-02    -  1.52e-01 1.00e+00h  1
  17  3.3561568e+00 2.34e-17 6.17e-11  -1.7 1.61e-04    -  1.00e+00 1.00e+00f  1
  18  3.0712775e+00 6.14e-17 7.86e+02  -5.7 8.08e-03    -  9.45e-01 8.94e-01f  1
  19  3.0598792e+00 7.08e-17 1.72e+03  -5.7 4.41e-04    -  1.00e+00 6.56e-01f  1
iter    objective    inf_pr   inf_du lg(mu)  ||d||  lg(rg) alpha_du alpha_pr  ls
  20  3.0555105e+00 4.35e-17 4.25e+04  -5.7 1.15e-04    -  1.52e-01 8.84e-01f  1
  21  3.0549072e+00 3.64e-17 2.32e+03  -5.7 3.22e-05    -  1.00e+00 9.48e-01f  1
  22  3.0548954e+00 2.76e-17 9.38e-11  -5.7 2.78e-07    -  1.00e+00 1.00e+00f  1
  23  3.0548814e+00 4.59e-17 1.59e+01  -8.6 5.12e-07    -  1.00e+00 9.53e-01f  1
  24  3.0548809e+00 7.48e-17 5.52e-11  -8.6 2.23e-08    -  1.00e+00 1.00e+00f  1

Number of Iterations....: 24

                                   (scaled)                 (unscaled)
Objective...............:   2.2912179603366378e+00    3.0548809065168396e+00
Dual infeasibility......:   5.5233570630555650e-11    7.3642919721719856e-11
Constraint violation....:   4.5434847290720670e-17    7.4809949901499806e-17
Complementarity.........:   2.9713180217275695e-09    3.9616583183693690e-09
Overall NLP error.......:   2.8937279331030374e-11    3.9616583183693690e-09


Number of objective function evaluations             = 30
Number of objective gradient evaluations             = 25
Number of equality constraint evaluations            = 30
Number of inequality constraint evaluations          = 0
Number of equality constraint Jacobian evaluations   = 25
Number of inequality constraint Jacobian evaluations = 0
Number of Lagrangian Hessian evaluations             = 24
Total CPU secs in IPOPT (w/o function evaluations)   =      0.028
Total CPU secs in NLP function evaluations           =      0.002

EXIT: Optimal Solution Found.

************************ CUTEst statistics ************************


 Package used            :  IPOPT
 Problem                 :  DEGENLPA  
 # variables             =              20
 # constraints           =              15
 # objective functions   =        0.5600000E+02
 # objective gradients   =        0.2600000E+02
 # objective Hessians    =        0.2500000E+02
 # Hessian-vector prdct  =        0.0000000E+00
 # constraints functions =        0.5700000E+02
 # constraints gradients =        0.2700000E+02
 # constraints Hessians  =        0.2500000E+02
 Exit code               =               0
 Final f                 =        3.0548809065168396D+00
 Bounds feasibility      =        9.9999925274610822D-09
 Set up time             =            0.01 seconds
 Solve time              =            0.12 seconds


******************************************************************

